bomb.21.tsp
NAME : GeneratedProblem
COMMENT : SVGCrosshatch
TYPE : TSP
DIMENSION : 11
EDGE_WEIGHT_TYPE : EUC_2D
NODE_COORD_SECTION
1 1400 7600
2 1700 8400
3 1900 8300
4 1900 8400
5 2000 7800
6 2000 8300
7 2000 8500
8 2100 8100
9 2100 8500
10 2200 7600
11 2400 7900
EOF
